n = 10
Q1 = [0 0 25 19 0 25 0 0 0 43; 0 0 22 31 0 0 0 0 0 17; 0 0 0 0 0 47 0 0 0 43; 0 0 0 0 0 0 0 0 16 0; 0 0 0 0 0 0 33 16 24 0; 0 0 0 0 0 0 0 0 0 0; 0 0 0 0 0 0 0 0 0 13; 0 0 0 0 0 0 0 0 18 0; 0 0 0 0 0 0 0 0 0 0; 0 0 0 0 0 0 0 0 0 0]
Q2 = [0.0 0.0 14.0 47.0 0.0 21.0 0.0 0.0 0.0 0.0; 0.0 0.0 41.0 13.0 0.0 0.0 0.0 0.0 0.0 34.0; 0.0 0.0 0.0 0.0 0.0 0.0 0.0 0.0 0.0 0.0; 0.0 0.0 0.0 0.0 0.0 0.0 0.0 0.0 38.0 0.0; 0.0 0.0 0.0 0.0 0.0 0.0 5.0 35.0 1.0 0.0; 0.0 0.0 0.0 0.0 0.0 0.0 0.0 0.0 0.0 0.0; 0.0 0.0 0.0 0.0 0.0 0.0 0.0 0.0 0.0 37.0; 0.0 0.0 0.0 0.0 0.0 0.0 0.0 0.0 32.0 0.0; 0.0 0.0 0.0 0.0 0.0 0.0 0.0 0.0 0.0 0.0; 0.0 0.0 0.0 0.0 0.0 0.0 0.0 0.0 0.0 0.0]
Q3 = [0 66 2 0 66 2 66 66 66 4; 0 0 2 13 66 66 66 66 66 0; 0 0 0 66 66 17 66 66 66 8; 0 0 0 0 66 66 66 66 0 66; 0 0 0 0 0 66 16 11 41 66; 0 0 0 0 0 0 66 66 66 66; 0 0 0 0 0 0 0 66 66 8; 0 0 0 0 0 0 0 0 1 66; 0 0 0 0 0 0 0 0 0 66; 0 0 0 0 0 0 0 0 0 0]
